#************************************************************************
# 
#    These are published data of the HERMES Collaboration.
#    You are free to use these data in any publication. 
#    However, you must make a reference to the following publication:
# 
#    A. Airapetian et al, Phys. Rev. D 87 (2013) 074029 
# 
#************************************************************************
# 
# Covariance matrices for the hadron charge asymmetries from HERMES
# Configuration: z-3D (x: 2, z: 10, Php: 5)
# Projected to: 1D (z: 10)
# Target: H
# Optional settings: VM subtracted
#
#  i    j            pi             k
   0    0  4.511744e-05  2.232598e-03
   0    1 -1.875978e-06 -5.255200e-05
   0    2  1.942463e-07  1.773222e-06
   0    3  3.811966e-08 -5.711452e-07
   0    4  7.719245e-08  3.813375e-08
   0    5  8.472997e-08  3.015932e-08
   0    6  8.441356e-08  4.320281e-08
   0    7  8.302861e-08  7.249774e-08
   0    8  8.067034e-08  3.565501e-08
   0    9  7.077637e-08  1.532126e-08
   1    0 -1.875978e-06 -3.633750e-05
   1    1  7.315721e-06  1.332094e-04
   1    2 -1.105796e-06 -1.689063e-05
   1    3  1.559566e-07  8.993142e-07
   1    4  4.739806e-08 -2.475401e-07
   1    5  7.825064e-08  2.635798e-08
   1    6  7.985467e-08 -7.825869e-10
   1    7  8.164237e-08  3.889722e-08
   1    8  8.233076e-08  6.815009e-08
   1    9  7.116133e-08  1.447175e-08
   2    0  1.942463e-07  1.274116e-06
   2    1 -1.105796e-06 -1.689063e-05
   2    2  5.942200e-06  7.330503e-05
   2    3 -1.397453e-06 -1.486491e-05
   2    4  1.174766e-07  2.692526e-07
   2    5  4.765118e-08 -1.600202e-07
   2    6  7.554329e-08 -2.691536e-10
   2    7  7.259849e-08 -5.340635e-09
   2    8  7.616456e-08  2.390681e-08
   2    9  7.180008e-08  1.933556e-08
   3    0  3.811966e-08 -4.297388e-07
   3    1  1.559566e-07  8.993142e-07
   3    2 -1.397453e-06 -1.486491e-05
   3    3  6.936597e-06  6.241099e-05
   3    4 -1.029834e-06 -7.783191e-06
   3    5  2.067470e-07  7.204178e-07
   3    6  2.558370e-08 -2.106134e-07
   3    7  7.544338e-08 -2.002993e-08
   3    8  6.395908e-08 -2.740829e-08
   3    9  7.068963e-08  1.776408e-08
   4    0  7.719245e-08  2.113620e-08
   4    1  4.739806e-08 -2.475401e-07
   4    2  1.174766e-07  2.692526e-07
   4    3 -1.029834e-06 -7.783191e-06
   4    4  3.871961e-06  2.483884e-05
   4    5 -1.041499e-06 -6.061470e-06
   4    6  2.056557e-07  5.796844e-07
   4    7 -5.445686e-09 -3.591221e-07
   4    8  5.771759e-08 -2.641721e-08
   4    9  5.750248e-08 -2.281723e-08
   5    0  8.472997e-08  2.682776e-08
   5    1  7.825064e-08  2.635798e-08
   5    2  4.765118e-08 -1.600202e-07
   5    3  2.067470e-07  7.204178e-07
   5    4 -1.041499e-06 -6.061470e-06
   5    5  7.016798e-06  3.545821e-05
   5    6 -2.436030e-06 -1.031298e-05
   5    7  4.705592e-07  1.333270e-06
   5    8 -1.837161e-07 -9.403462e-07
   5    9  5.104054e-08  2.032291e-08
   6    0  8.441356e-08  3.677267e-08
   6    1  7.985467e-08 -7.825869e-10
   6    2  7.554329e-08 -2.691536e-10
   6    3  2.558370e-08 -2.106134e-07
   6    4  2.056557e-07  5.796844e-07
   6    5 -2.436030e-06 -1.031298e-05
   6    6  1.267412e-05  4.737063e-05
   6    7 -5.135851e-06 -1.719319e-05
   6    8  1.309796e-06  3.798400e-06
   6    9 -2.595107e-07 -7.462000e-07
   7    0  8.302861e-08  6.715434e-08
   7    1  8.164237e-08  3.889722e-08
   7    2  7.259849e-08 -5.340635e-09
   7    3  7.544338e-08 -2.002993e-08
   7    4 -5.445686e-09 -3.591221e-07
   7    5  4.705592e-07  1.333270e-06
   7    6 -5.135851e-06 -1.719319e-05
   7    7  2.081788e-05  6.866832e-05
   7    8 -1.053113e-05 -3.183225e-05
   7    9  1.231718e-06  3.322952e-06
   8    0  8.067034e-08  3.818631e-08
   8    1  8.233076e-08  6.818449e-08
   8    2  7.616456e-08  2.410983e-08
   8    3  6.395908e-08 -2.797634e-08
   8    4  5.771759e-08 -2.122581e-08
   8    5 -1.837161e-07 -9.633443e-07
   8    6  1.309796e-06  3.861047e-06
   8    7 -1.053113e-05 -3.227867e-05
   8    8  3.743282e-05  1.276058e-04
   8    9 -8.583635e-06 -2.569227e-05
   9    0  7.077637e-08  1.527519e-08
   9    1  7.116133e-08  1.464565e-08
   9    2  7.180008e-08  2.019941e-08
   9    3  7.068963e-08  1.344086e-08
   9    4  5.750248e-08 -2.773344e-08
   9    5  5.104054e-08  3.250466e-08
   9    6 -2.595107e-07 -7.989397e-07
   9    7  1.231718e-06  3.640891e-06
   9    8 -8.583635e-06 -2.834789e-05
   9    9  1.399274e-05  4.462629e-05
