#************************************************************************
# 
#    These are published data of the HERMES Collaboration.
#    You are free to use these data in any publication. 
#    However, you must make a reference to the following publication:
# 
#    A. Airapetian et al, Phys. Rev. D 87 (2013) 074029 
# 
#************************************************************************
# 
# Covariance matrices for the K/pi multiplicity ratios from HERMES
# Configuration: z-3D (x: 2, z: 10, Php: 5)
# Projected to: 1D (z: 10)
# Target: H
# Optional settings: VM subtracted
#
#  i    j        K+/pi+        K-/pi-
   0    0  4.789432e-05  6.594746e-05
   0    1 -1.463817e-06 -1.282149e-06
   0    2  6.271206e-08  4.826843e-08
   0    3 -1.965493e-08 -1.527311e-08
   0    4  5.420241e-09  3.122229e-09
   0    5  1.065095e-08  1.712598e-09
   0    6  8.801645e-09  4.399960e-09
   0    7  1.560917e-08  5.497967e-09
   0    8  1.235744e-08  2.639716e-09
   0    9  1.189485e-08  1.132838e-09
   1    0 -1.267039e-06 -7.416071e-07
   1    1  3.251957e-06  3.408867e-06
   1    2 -4.706425e-07 -4.748145e-07
   1    3  3.152275e-08  3.135623e-08
   1    4 -8.786887e-09 -6.759741e-09
   1    5  6.376008e-09  2.674417e-09
   1    6  3.957126e-09  2.541966e-09
   1    7  1.280246e-08  3.158845e-09
   1    8  1.482989e-08  4.103361e-09
   1    9  1.075809e-08  1.086393e-09
   2    0  5.642504e-08  2.983617e-08
   2    1 -4.706425e-07 -4.748145e-07
   2    2  2.289764e-06  2.306333e-06
   2    3 -5.706354e-07 -5.170507e-07
   2    4  1.554900e-08  1.418995e-08
   2    5 -5.957751e-09 -5.819449e-09
   2    6  5.422395e-09  2.167495e-09
   2    7  8.429307e-09  8.609508e-10
   2    8  6.759793e-09  3.270860e-09
   2    9  1.511052e-08  1.288533e-09
   3    0 -1.797830e-08 -9.261841e-09
   3    1  3.152275e-08  3.135623e-08
   3    2 -5.706354e-07 -5.170507e-07
   3    3  2.798733e-06  2.488889e-06
   3    4 -4.646443e-07 -3.545530e-07
   3    5  6.396307e-08  4.083306e-08
   3    6 -2.046833e-08 -9.972635e-09
   3    7  7.350508e-09  3.609968e-10
   3    8  3.609290e-09 -3.819580e-10
   3    9  1.059159e-08  1.903803e-09
   4    0  5.482386e-09  2.153721e-09
   4    1 -8.786887e-09 -6.759741e-09
   4    2  1.554900e-08  1.418995e-08
   4    3 -4.646443e-07 -3.545530e-07
   4    4  1.823241e-06  1.348950e-06
   4    5 -5.888874e-07 -3.789869e-07
   4    6  8.048059e-08  4.666779e-08
   4    7 -5.704350e-08 -2.604708e-08
   4    8  6.097792e-10 -1.387173e-11
   4    9  5.377919e-09 -1.622063e-09
   5    0  1.057409e-08  1.533442e-09
   5    1  6.376008e-09  2.674417e-09
   5    2 -5.957751e-09 -5.819449e-09
   5    3  6.396307e-08  4.083306e-08
   5    4 -5.888874e-07 -3.789869e-07
   5    5  4.225549e-06  2.663963e-06
   5    6 -1.680223e-06 -9.045845e-07
   5    7  2.843761e-07  1.386197e-07
   5    8 -2.103645e-07 -7.749296e-08
   5    9  3.481951e-09  3.109651e-09
   6    0  8.630517e-09  3.989057e-09
   6    1  3.957126e-09  2.541966e-09
   6    2  5.422395e-09  2.167495e-09
   6    3 -2.046833e-08 -9.972635e-09
   6    4  8.048059e-08  4.666779e-08
   6    5 -1.680223e-06 -9.045845e-07
   6    6  9.720094e-06  4.977131e-06
   6    7 -4.432700e-06 -2.055014e-06
   6    8  1.004242e-06  4.076957e-07
   6    9 -2.930163e-07 -8.853206e-08
   7    0  1.560763e-08  5.061727e-09
   7    1  1.280246e-08  3.158845e-09
   7    2  8.429307e-09  8.609508e-10
   7    3  7.350508e-09  3.609968e-10
   7    4 -5.704350e-08 -2.604708e-08
   7    5  2.843761e-07  1.386197e-07
   7    6 -4.432700e-06 -2.055014e-06
   7    7  1.987995e-05  9.524507e-06
   7    8 -9.767143e-06 -3.888418e-06
   7    9  1.137789e-06  4.658964e-07
   8    0  1.238774e-08  2.815895e-09
   8    1  1.482989e-08  4.105835e-09
   8    2  6.759793e-09  3.286707e-09
   8    3  3.609290e-09 -4.306573e-10
   8    4  6.097792e-10  4.854154e-10
   8    5 -2.103645e-07 -8.002393e-08
   8    6  1.004242e-06  4.156794e-07
   8    7 -9.767143e-06 -3.951940e-06
   8    8  3.482586e-05  1.407032e-05
   8    9 -9.083758e-06 -3.169115e-06
   9    0  1.187099e-08  1.131590e-09
   9    1  1.075809e-08  1.099444e-09
   9    2  1.511052e-08  1.358885e-09
   9    3  1.059159e-08  1.517092e-09
   9    4  5.377919e-09 -2.115395e-09
   9    5  3.481951e-09  4.508425e-09
   9    6 -2.930163e-07 -9.554476e-08
   9    7  1.137789e-06  5.130996e-07
   9    8 -9.083758e-06 -3.518959e-06
   9    9  1.314541e-05  6.027311e-06
