#************************************************************************
# 
#    These are published data of the HERMES Collaboration.
#    You are free to use these data in any publication. 
#    However, you must make a reference to the following publication:
# 
#    A. Airapetian et al, Phys. Rev. D 87 (2013) 074029 
# 
#************************************************************************
# 
# Covariance matrices for the target asymmetries from HERMES
# Configuration: z-3D (x: 2, z: 10, Php: 5)
# Projected to: 1D (z: 10)
# Optional settings: Not VM subtracted
#
#  i    j           pi+           pi-            K+            K-
   0    0  3.355900e-05  4.606532e-05  1.076281e-03  2.284044e-03
   0    1 -1.480066e-06 -1.890533e-06 -3.715526e-05 -4.993168e-05
   0    2  1.653071e-07  1.923664e-07  1.424682e-06  1.934521e-06
   0    3  4.011134e-08  3.694405e-08 -4.421320e-07 -4.967491e-07
   0    4  7.646768e-08  7.527723e-08  1.174875e-08  2.282838e-08
   0    5  8.150392e-08  8.342967e-08  9.397777e-08  4.052475e-08
   0    6  8.589948e-08  8.530743e-08  6.599548e-08  8.987392e-08
   0    7  8.504399e-08  8.527284e-08  1.007893e-07  1.191672e-07
   0    8  8.401671e-08  8.308305e-08  8.225500e-08  7.186020e-08
   0    9  8.404603e-08  8.353353e-08  8.544997e-08  8.481163e-08
   1    0 -1.480066e-06 -1.890533e-06 -3.313427e-05 -3.598034e-05
   1    1  6.146957e-06  7.460063e-06  1.033091e-04  1.520364e-04
   1    2 -9.522513e-07 -1.128367e-06 -1.349228e-05 -1.944653e-05
   1    3  1.436304e-07  1.573377e-07  7.057648e-07  1.126367e-06
   1    4  4.824430e-08  4.484509e-08 -2.408218e-07 -3.110634e-07
   1    5  7.818857e-08  7.779533e-08  3.406141e-08  4.355273e-08
   1    6  8.017877e-08  8.006508e-08  1.012823e-08  4.209159e-08
   1    7  8.378124e-08  8.346712e-08  7.368140e-08  5.910339e-08
   1    8  8.587375e-08  8.620711e-08  1.135295e-07  1.142041e-07
   1    9  8.461957e-08  8.404260e-08  8.815868e-08  8.923903e-08
   2    0  1.653071e-07  1.923664e-07  1.306780e-06  1.491684e-06
   2    1 -9.522513e-07 -1.128367e-06 -1.349228e-05 -1.944653e-05
   2    2  5.166664e-06  6.135035e-06  5.973488e-05  9.082448e-05
   2    3 -1.230204e-06 -1.456665e-06 -1.253526e-05 -1.916974e-05
   2    4  1.117146e-07  1.200037e-07  2.251696e-07  4.660899e-07
   2    5  4.905896e-08  4.390136e-08 -1.667308e-07 -2.747901e-07
   2    6  7.651393e-08  7.606895e-08 -1.400896e-08 -1.686326e-08
   2    7  7.451036e-08  7.410811e-08  2.952033e-08 -2.906565e-08
   2    8  8.013787e-08  8.127985e-08  2.829931e-08  1.221296e-07
   2    9  8.580603e-08  8.540916e-08  1.176855e-07  7.788970e-08
   3    0  4.011134e-08  3.694405e-08 -4.125463e-07 -3.609066e-07
   3    1  1.436304e-07  1.573377e-07  7.057648e-07  1.126367e-06
   3    2 -1.230204e-06 -1.456665e-06 -1.253526e-05 -1.916974e-05
   3    3  6.093565e-06  7.342698e-06  5.195941e-05  8.478603e-05
   3    4 -9.117387e-07 -1.122593e-06 -6.981595e-06 -1.178291e-05
   3    5  1.951944e-07  2.195232e-07  7.162216e-07  1.217826e-06
   3    6  2.900991e-08  2.115153e-08 -2.787507e-07 -3.485539e-07
   3    7  7.880563e-08  7.722459e-08 -5.776006e-09 -6.522444e-08
   3    8  6.069224e-08  6.953001e-08 -2.427693e-08 -1.417279e-07
   3    9  8.565528e-08  8.365130e-08  5.762462e-08  1.872730e-07
   4    0  7.646768e-08  7.527723e-08  1.198420e-08  2.162851e-09
   4    1  4.824430e-08  4.484509e-08 -2.408218e-07 -3.110634e-07
   4    2  1.117146e-07  1.200037e-07  2.251696e-07  4.660899e-07
   4    3 -9.117387e-07 -1.122593e-06 -6.981595e-06 -1.178291e-05
   4    4  3.400010e-06  4.253114e-06  2.197712e-05  4.235400e-05
   4    5 -9.218304e-07 -1.175198e-06 -5.844286e-06 -1.154956e-05
   4    6  1.962343e-07  2.268245e-07  5.735407e-07  1.240885e-06
   4    7 -1.386977e-09 -1.996991e-08 -4.735809e-07 -8.890748e-07
   4    8  5.766079e-08  6.287486e-08 -5.082240e-08 -1.384767e-07
   4    9  6.897847e-08  6.833936e-08 -2.478201e-08 -2.005630e-07
   5    0  8.150392e-08  8.342967e-08  9.296614e-08  3.701532e-08
   5    1  7.818857e-08  7.779533e-08  3.406141e-08  4.355273e-08
   5    2  4.905896e-08  4.390136e-08 -1.667308e-07 -2.747901e-07
   5    3  1.951944e-07  2.195232e-07  7.162216e-07  1.217826e-06
   5    4 -9.218304e-07 -1.175198e-06 -5.844286e-06 -1.154956e-05
   5    5  6.202279e-06  8.047111e-06  3.310706e-05  7.598161e-05
   5    6 -2.188660e-06 -2.875788e-06 -1.093885e-05 -2.467164e-05
   5    7  4.496377e-07  5.626242e-07  1.697052e-06  4.408596e-06
   5    8 -2.053010e-07 -2.533187e-07 -1.431576e-06 -3.164661e-06
   5    9  5.364247e-08  5.652010e-08 -6.986245e-08 -1.423520e-07
   6    0  8.589948e-08  8.530743e-08  6.453170e-08  8.211987e-08
   6    1  8.017877e-08  8.006508e-08  1.012823e-08  4.209159e-08
   6    2  7.651393e-08  7.606895e-08 -1.400896e-08 -1.686326e-08
   6    3  2.900991e-08  2.115153e-08 -2.787507e-07 -3.485539e-07
   6    4  1.962343e-07  2.268245e-07  5.735407e-07  1.240885e-06
   6    5 -2.188660e-06 -2.875788e-06 -1.093885e-05 -2.467164e-05
   6    6  1.127512e-05  1.525981e-05  5.140785e-05  1.278262e-04
   6    7 -4.681095e-06 -6.379340e-06 -2.086023e-05 -5.830186e-05
   6    8  1.319403e-06  1.718255e-06  5.324567e-06  1.567415e-05
   6    9 -2.551067e-07 -3.754966e-07 -1.771427e-06 -8.650627e-06
   7    0  8.504399e-08  8.527284e-08  1.006184e-07  1.098228e-07
   7    1  8.378124e-08  8.346712e-08  7.368140e-08  5.897599e-08
   7    2  7.451036e-08  7.410811e-08  2.952033e-08 -2.880328e-08
   7    3  7.880563e-08  7.722459e-08 -5.776006e-09 -6.485545e-08
   7    4 -1.386977e-09 -1.996991e-08 -4.735809e-07 -8.911348e-07
   7    5  4.496377e-07  5.626242e-07  1.697052e-06  4.406696e-06
   7    6 -4.681095e-06 -6.379340e-06 -2.086023e-05 -5.836072e-05
   7    7  1.891759e-05  2.608148e-05  8.319717e-05  3.001413e-04
   7    8 -1.075198e-05 -1.415474e-05 -4.639375e-05 -1.669904e-04
   7    9  1.126639e-06  1.500054e-06  5.832508e-06  5.059789e-05
   8    0  8.514151e-08  8.420503e-08  8.347296e-08  7.806316e-08
   8    1  8.699882e-08  8.733134e-08  1.146509e-07  1.153822e-07
   8    2  8.126217e-08  8.240464e-08  2.942089e-08  1.238369e-07
   8    3  6.182435e-08  7.065516e-08 -2.315535e-08 -1.422817e-07
   8    4  5.877287e-08  6.399964e-08 -4.970209e-08 -1.236737e-07
   8    5 -2.041692e-07 -2.521942e-07 -1.430456e-06 -3.226168e-06
   8    6  1.321668e-06  1.719378e-06  5.325688e-06  1.587966e-05
   8    7 -1.076064e-05 -1.415362e-05 -4.639264e-05 -1.683351e-04
   8    8  4.091846e-05  5.317995e-05  1.883191e-04  8.045548e-04
   8    9 -9.354523e-06 -1.234594e-05 -5.408567e-05 -4.784054e-04
   9    0  8.404603e-08  8.353353e-08  8.532148e-08  8.464675e-08
   9    1  8.461957e-08  8.404260e-08  8.815868e-08  8.980999e-08
   9    2  8.580603e-08  8.540916e-08  1.176855e-07  8.664648e-08
   9    3  8.565528e-08  8.365130e-08  5.762462e-08  1.536061e-07
   9    4  6.897847e-08  6.833936e-08 -2.478201e-08 -2.207581e-07
   9    5  5.364247e-08  5.652010e-08 -6.986245e-08  3.693624e-08
   9    6 -2.551067e-07 -3.754966e-07 -1.771427e-06 -9.548972e-06
   9    7  1.126639e-06  1.500054e-06  5.832508e-06  5.497919e-05
   9    8 -9.340653e-06 -1.234706e-05 -5.408679e-05 -5.159856e-04
   9    9  1.282446e-05  1.955180e-05  8.471578e-05  2.249018e-03
