#************************************************************************
# 
#    These are published data of the HERMES Collaboration.
#    You are free to use these data in any publication. 
#    However, you must make a reference to the following publication:
# 
#    A. Airapetian et al, Phys. Rev. D 87 (2013) 074029 
# 
#************************************************************************
# 
# Covariance matrices for the hadron charge asymmetries from HERMES
# Configuration: z-3D (x: 2, z: 10, Php: 5)
# Projected to: 1D (z: 10)
# Target: D
# Optional settings: VM subtracted
#
#  i    j            pi             k
   0    0  3.590582e-05  8.915233e-04
   0    1 -1.541790e-06 -2.964770e-05
   0    2  1.647309e-07  1.343022e-06
   0    3  3.736473e-08 -2.686385e-07
   0    4  7.185455e-08 -8.715288e-09
   0    5  7.529781e-08  7.177502e-08
   0    6  7.986585e-08  6.455442e-08
   0    7  7.805199e-08  5.897722e-08
   0    8  7.604911e-08  4.512062e-08
   0    9  7.368940e-08  1.837963e-08
   1    0 -1.541790e-06 -2.899632e-05
   1    1  6.423352e-06  1.095916e-04
   1    2 -9.803480e-07 -1.376702e-05
   1    3  1.428719e-07  7.572235e-07
   1    4  4.368207e-08 -2.157331e-07
   1    5  7.328724e-08  3.568387e-08
   1    6  7.347579e-08  3.513822e-08
   1    7  7.587670e-08  3.992723e-08
   1    8  7.856909e-08  4.946439e-08
   1    9  7.387917e-08  2.150016e-08
   2    0  1.647309e-07  1.322106e-06
   2    1 -9.803480e-07 -1.376702e-05
   2    2  5.330409e-06  6.377195e-05
   2    3 -1.264887e-06 -1.309720e-05
   2    4  1.104373e-07  3.192910e-07
   2    5  4.245030e-08 -1.655406e-07
   2    6  7.065676e-08 -2.593066e-08
   2    7  6.678002e-08  5.953891e-09
   2    8  7.476875e-08  5.462113e-08
   2    9  7.468852e-08  1.719714e-08
   3    0  3.736473e-08 -2.612870e-07
   3    1  1.428719e-07  7.572235e-07
   3    2 -1.264887e-06 -1.309720e-05
   3    3  6.313150e-06  5.459723e-05
   3    4 -9.604462e-07 -7.222962e-06
   3    5  1.941641e-07  6.987549e-07
   3    6  2.268739e-08 -2.036373e-07
   3    7  7.163639e-08 -2.458271e-08
   3    8  5.882774e-08 -5.264045e-08
   3    9  7.324994e-08  3.059073e-08
   4    0  7.185455e-08 -9.078040e-09
   4    1  4.368207e-08 -2.157331e-07
   4    2  1.104373e-07  3.192910e-07
   4    3 -9.604462e-07 -7.222962e-06
   4    4  3.572313e-06  2.410200e-05
   4    5 -9.727908e-07 -5.945747e-06
   4    6  1.972581e-07  5.468532e-07
   4    7 -1.371955e-08 -3.800184e-07
   4    8  6.090510e-08 -6.396842e-08
   4    9  6.066413e-08 -1.459123e-08
   5    0  7.529781e-08  7.146710e-08
   5    1  7.328724e-08  3.568387e-08
   5    2  4.245030e-08 -1.655406e-07
   5    3  1.941641e-07  6.987549e-07
   5    4 -9.727908e-07 -5.945747e-06
   5    5  6.569166e-06  3.512779e-05
   5    6 -2.317668e-06 -1.060608e-05
   5    7  4.846271e-07  1.660039e-06
   5    8 -2.083417e-07 -1.086826e-06
   5    9  5.552464e-08 -6.245805e-08
   6    0  7.986585e-08  6.434514e-08
   6    1  7.347579e-08  3.513822e-08
   6    2  7.065676e-08 -2.593066e-08
   6    3  2.268739e-08 -2.036373e-07
   6    4  1.972581e-07  5.468532e-07
   6    5 -2.317668e-06 -1.060608e-05
   6    6  1.203352e-05  4.973743e-05
   6    7 -5.043074e-06 -1.943420e-05
   6    8  1.386501e-06  4.736673e-06
   6    9 -2.834844e-07 -9.189075e-07
   7    0  7.805199e-08  5.888474e-08
   7    1  7.587670e-08  3.986079e-08
   7    2  6.678002e-08  6.100834e-09
   7    3  7.163639e-08 -2.440773e-08
   7    4 -1.371955e-08 -3.810501e-07
   7    5  4.846271e-07  1.658576e-06
   7    6 -5.043074e-06 -1.945979e-05
   7    7  2.041511e-05  7.825896e-05
   7    8 -1.091379e-05 -3.924954e-05
   7    9  1.419753e-06  4.224716e-06
   8    0  7.604911e-08  4.505532e-08
   8    1  7.856909e-08  4.946439e-08
   8    2  7.476875e-08  5.462113e-08
   8    3  5.882774e-08 -5.264045e-08
   8    4  6.090510e-08 -6.396842e-08
   8    5 -2.083417e-07 -1.086826e-06
   8    6  1.386501e-06  4.736673e-06
   8    7 -1.091379e-05 -3.913059e-05
   8    8  3.912946e-05  1.567608e-04
   8    9 -9.775403e-06 -3.420478e-05
   9    0  7.368940e-08  1.837853e-08
   9    1  7.387917e-08  2.139232e-08
   9    2  7.468852e-08  1.806726e-08
   9    3  7.324994e-08  2.873730e-08
   9    4  6.066413e-08 -1.183083e-08
   9    5  5.552464e-08 -4.050793e-08
   9    6 -2.834844e-07 -1.019555e-06
   9    7  1.419753e-06  4.445798e-06
   9    8 -9.775403e-06 -3.559030e-05
   9    9  1.593968e-05  5.610127e-05
