#************************************************************************
# 
#    These are published data of the HERMES Collaboration.
#    You are free to use these data in any publication. 
#    However, you must make a reference to the following publication:
# 
#    A. Airapetian et al, Phys. Rev. D 87 (2013) 074029 
# 
#************************************************************************
# 
# Covariance matrices for the K/pi multiplicity ratios from HERMES
# Configuration: z-3D (x: 2, z: 10, Php: 5)
# Projected to: 1D (z: 10)
# Target: D
# Optional settings: VM subtracted
#
#  i    j        K+/pi+        K-/pi-
   0    0  2.216960e-05  2.025837e-05
   0    1 -8.513142e-07 -6.537062e-07
   0    2  4.344953e-08  3.465480e-08
   0    3 -1.162398e-08 -4.420809e-09
   0    4  2.912315e-09  1.293723e-09
   0    5  9.432492e-09  3.525656e-09
   0    6  1.177390e-08  3.773025e-09
   0    7  1.244668e-08  3.375672e-09
   0    8  1.060448e-08  2.452100e-09
   0    9  1.091243e-08  9.645941e-10
   1    0 -8.092585e-07 -6.537062e-07
   1    1  3.059113e-06  2.612288e-06
   1    2 -4.546914e-07 -3.408690e-07
   1    3  3.221176e-08  2.385645e-08
   1    4 -8.560052e-09 -4.869652e-09
   1    5  6.047082e-09  2.906229e-09
   1    6  7.695292e-09  3.152821e-09
   1    7  9.842764e-09  2.965253e-09
   1    8  1.152169e-08  2.679742e-09
   1    9  1.161615e-08  1.117401e-09
   2    0  4.191794e-08  3.465480e-08
   2    1 -4.546914e-07 -3.408690e-07
   2    2  2.336868e-06  1.713960e-06
   2    3 -5.730709e-07 -4.082393e-07
   2    4  1.880008e-08  1.359119e-08
   2    5 -8.364349e-09 -4.720659e-09
   2    6  3.410108e-09  6.560308e-10
   2    7  8.087666e-09  1.171936e-09
   2    8  9.302986e-09  3.787322e-09
   2    9  1.404879e-08  8.446597e-10
   3    0 -1.098447e-08 -4.420809e-09
   3    1  3.221176e-08  2.385645e-08
   3    2 -5.730709e-07 -4.082393e-07
   3    3  2.836672e-06  1.995733e-06
   3    4 -4.567074e-07 -2.924138e-07
   3    5  6.568606e-08  3.404490e-08
   3    6 -2.219495e-08 -7.716163e-09
   3    7  6.021579e-09  7.984318e-11
   3    8  2.995572e-09 -1.994673e-09
   3    9  1.351028e-08  2.060466e-09
   4    0  2.873573e-09  1.293723e-09
   4    1 -8.560052e-09 -4.869652e-09
   4    2  1.880008e-08  1.359119e-08
   4    3 -4.567074e-07 -2.924138e-07
   4    4  1.773923e-06  1.105219e-06
   4    5 -5.774547e-07 -3.068420e-07
   4    6  7.761198e-08  3.637286e-08
   4    7 -5.230913e-08 -2.078218e-08
   4    8  1.583991e-09 -2.637025e-09
   4    9  3.211199e-09 -2.604134e-10
   5    0  9.388436e-09  3.525656e-09
   5    1  6.047082e-09  2.906229e-09
   5    2 -8.364349e-09 -4.720659e-09
   5    3  6.568606e-08  3.404490e-08
   5    4 -5.774547e-07 -3.068420e-07
   5    5  4.160972e-06  2.137878e-06
   5    6 -1.689170e-06 -7.497160e-07
   5    7  3.102165e-07  1.220996e-07
   5    8 -2.119266e-07 -6.551509e-08
   5    9 -7.164539e-09 -3.555555e-09
   6    0  1.173499e-08  3.773025e-09
   6    1  7.695292e-09  3.152821e-09
   6    2  3.410108e-09  6.560308e-10
   6    3 -2.219495e-08 -7.716163e-09
   6    4  7.761198e-08  3.637286e-08
   6    5 -1.689170e-06 -7.497160e-07
   6    6  9.635774e-06  4.248961e-06
   6    7 -4.189735e-06 -1.693861e-06
   6    8  1.048733e-06  3.723624e-07
   6    9 -3.301211e-07 -7.175379e-08
   7    0  1.242349e-08  3.376382e-09
   7    1  9.842764e-09  2.960988e-09
   7    2  8.087666e-09  1.181862e-09
   7    3  6.021579e-09  9.337883e-11
   7    4 -5.230913e-08 -2.086874e-08
   7    5  3.102165e-07  1.219629e-07
   7    6 -4.189735e-06 -1.696645e-06
   7    7  1.734184e-05  7.075081e-06
   7    8 -9.131103e-06 -3.146309e-06
   7    9  1.191520e-06  3.561551e-07
   8    0  1.058916e-08  2.452100e-09
   8    1  1.152169e-08  2.679742e-09
   8    2  9.302986e-09  3.787322e-09
   8    3  2.995572e-09 -1.994673e-09
   8    4  1.583991e-09 -2.637025e-09
   8    5 -2.119266e-07 -6.551509e-08
   8    6  1.048733e-06  3.723624e-07
   8    7 -9.131103e-06 -3.134795e-06
   8    8  3.376040e-05  1.137320e-05
   8    9 -9.868870e-06 -2.544882e-06
   9    0  1.091989e-08  9.638748e-10
   9    1  1.161615e-08  1.111554e-09
   9    2  1.404879e-08  8.942941e-10
   9    3  1.351028e-08  1.939398e-09
   9    4  3.211199e-09 -6.484058e-11
   9    5 -7.164539e-09 -1.823835e-09
   9    6 -3.301211e-07 -8.099751e-08
   9    7  1.191520e-06  3.763929e-07
   9    8 -9.868870e-06 -2.658135e-06
   9    9  1.595126e-05  4.190100e-06
